Route #1: 1 1 16 20 5 21 13 19 12 15 11 4 10 2 1 
Route #2: 1 6 7 14 17 9 8 18 3 1 

Cost 249.765
Time 0.1037


 * Another infos *

 Iterations: 22 Time: 0.1037 sec - 0.0017 min - 0.0000 horas
0.0000 h 0.0017 min
Problem dimension: 22
